\ LP format - for model browsing. Use MPS format to capture full model detail.
Minimize
  0 y00 + 0 y01 + 0 y02 + 0 x0000 + 0 x0010 + 0 x0011 + 0 x0020 + 0 x0021
   + 0 x0022 + 0 x1000 + 0 x1010 + 0 x1011 + 0 x1020 + 0 x1021 + 0 x1022
   + 0 x2000 + 0 x2010 + 0 x2011 + 0 x2020 + 0 x2021 + 0 x2022 + 0 x3000
   + 0 x3010 + 0 x3011 + 0 x3020 + 0 x3021 + 0 x3022 + 0 x4000 + 0 x4010
   + 0 x4011 + 0 x4020 + 0 x4021 + 0 x4022 + 0 x5000 + 0 x5010 + 0 x5011
   + 0 x5020 + 0 x5021 + 0 x5022 + 0 x6000 + 0 x6010 + 0 x6011 + 0 x6020
   + 0 x6021 + 0 x6022 + 0 t1111 + 0 t1112 + 0 t1113 + 0 t1114 + 0 t1115
   + 0 t1121 + 0 t1122 + 0 t1123 + 0 t1124 + 0 t1125 + 0 t1131 + 0 t1132
   + 0 t1133 + 0 t1134 + 0 t1135 + 0 t1141 + 0 t1142 + 0 t1143 + 0 t1144
   + 0 t1145 + 0 t1151 + 0 t1152 + 0 t1153 + 0 t1154 + 0 t1155 + 0 t1161
   + 0 t1162 + 0 t1163 + 0 t1164 + 0 t1165 + 0 t1211 + 0 t1212 + 0 t1213
   + 0 t1214 + 0 t1215 + 0 t1221 + 0 t1222 + 0 t1223 + 0 t1224 + 0 t1225
   + 0 t1231 + 0 t1232 + 0 t1233 + 0 t1234 + 0 t1235 + 0 t1241 + 0 t1242
   + 0 t1243 + 0 t1244 + 0 t1245 + 0 t1251 + 0 t1252 + 0 t1253 + 0 t1254
   + 0 t1255 + 0 t1261 + 0 t1262 + 0 t1263 + 0 t1264 + 0 t1265 + 0 t1311
   + 0 t1312 + 0 t1313 + 0 t1314 + 0 t1315 + 0 t1321 + 0 t1322 + 0 t1323
   + 0 t1324 + 0 t1325 + 0 t1331 + 0 t1332 + 0 t1333 + 0 t1334 + 0 t1335
   + 0 t1341 + 0 t1342 + 0 t1343 + 0 t1344 + 0 t1345 + 0 t1351 + 0 t1352
   + 0 t1353 + 0 t1354 + 0 t1355 + 0 t1361 + 0 t1362 + 0 t1363 + 0 t1364
   + 0 t1365 + 0 t1411 + 0 t1412 + 0 t1413 + 0 t1414 + 0 t1415 + 0 t1421
   + 0 t1422 + 0 t1423 + 0 t1424 + 0 t1425 + 0 t1431 + 0 t1432 + 0 t1433
   + 0 t1434 + 0 t1435 + 0 t1441 + 0 t1442 + 0 t1443 + 0 t1444 + 0 t1445
   + 0 t1451 + 0 t1452 + 0 t1453 + 0 t1454 + 0 t1455 + 0 t1461 + 0 t1462
   + 0 t1463 + 0 t1464 + 0 t1465 + 0 t1511 + 0 t1512 + 0 t1513 + 0 t1514
   + 0 t1515 + 0 t1521 + 0 t1522 + 0 t1523 + 0 t1524 + 0 t1525 + 0 t1531
   + 0 t1532 + 0 t1533 + 0 t1534 + 0 t1535 + 0 t1541 + 0 t1542 + 0 t1543
   + 0 t1544 + 0 t1545 + 0 t1551 + 0 t1552 + 0 t1553 + 0 t1554 + 0 t1555
   + 0 t1561 + 0 t1562 + 0 t1563 + 0 t1564 + 0 t1565 + 0 t2111 + 0 t2112
   + 0 t2113 + 0 t2114 + 0 t2115 + 0 t2121 + 0 t2122 + 0 t2123 + 0 t2124
   + 0 t2125 + 0 t2131 + 0 t2132 + 0 t2133 + 0 t2134 + 0 t2135 + 0 t2141
   + 0 t2142 + 0 t2143 + 0 t2144 + 0 t2145 + 0 t2151 + 0 t2152 + 0 t2153
   + 0 t2154 + 0 t2155 + 0 t2161 + 0 t2162 + 0 t2163 + 0 t2164 + 0 t2165
   + 0 t2211 + 0 t2212 + 0 t2213 + 0 t2214 + 0 t2215 + 0 t2221 + 0 t2222
   + 0 t2223 + 0 t2224 + 0 t2225 + 0 t2231 + 0 t2232 + 0 t2233 + 0 t2234
   + 0 t2235 + 0 t2241 + 0 t2242 + 0 t2243 + 0 t2244 + 0 t2245 + 0 t2251
   + 0 t2252 + 0 t2253 + 0 t2254 + 0 t2255 + 0 t2261 + 0 t2262 + 0 t2263
   + 0 t2264 + 0 t2265 + 0 t2311 + 0 t2312 + 0 t2313 + 0 t2314 + 0 t2315
   + 0 t2321 + 0 t2322 + 0 t2323 + 0 t2324 + 0 t2325 + 0 t2331 + 0 t2332
   + 0 t2333 + 0 t2334 + 0 t2335 + 0 t2341 + 0 t2342 + 0 t2343 + 0 t2344
   + 0 t2345 + 0 t2351 + 0 t2352 + 0 t2353 + 0 t2354 + 0 t2355 + 0 t2361
   + 0 t2362 + 0 t2363 + 0 t2364 + 0 t2365 + 0 t2411 + 0 t2412 + 0 t2413
   + 0 t2414 + 0 t2415 + 0 t2421 + 0 t2422 + 0 t2423 + 0 t2424 + 0 t2425
   + 0 t2431 + 0 t2432 + 0 t2433 + 0 t2434 + 0 t2435 + 0 t2441 + 0 t2442
   + 0 t2443 + 0 t2444 + 0 t2445 + 0 t2451 + 0 t2452 + 0 t2453 + 0 t2454
   + 0 t2455 + 0 t2461 + 0 t2462 + 0 t2463 + 0 t2464 + 0 t2465 + 0 t2511
   + 0 t2512 + 0 t2513 + 0 t2514 + 0 t2515 + 0 t2521 + 0 t2522 + 0 t2523
   + 0 t2524 + 0 t2525 + 0 t2531 + 0 t2532 + 0 t2533 + 0 t2534 + 0 t2535
   + 0 t2541 + 0 t2542 + 0 t2543 + 0 t2544 + 0 t2545 + 0 t2551 + 0 t2552
   + 0 t2553 + 0 t2554 + 0 t2555 + 0 t2561 + 0 t2562 + 0 t2563 + 0 t2564
   + 0 t2565 + 0 t3111 + 0 t3112 + 0 t3113 + 0 t3114 + 0 t3115 + 0 t3121
   + 0 t3122 + 0 t3123 + 0 t3124 + 0 t3125 + 0 t3131 + 0 t3132 + 0 t3133
   + 0 t3134 + 0 t3135 + 0 t3141 + 0 t3142 + 0 t3143 + 0 t3144 + 0 t3145
   + 0 t3151 + 0 t3152 + 0 t3153 + 0 t3154 + 0 t3155 + 0 t3161 + 0 t3162
   + 0 t3163 + 0 t3164 + 0 t3165 + 0 t3211 + 0 t3212 + 0 t3213 + 0 t3214
   + 0 t3215 + 0 t3221 + 0 t3222 + 0 t3223 + 0 t3224 + 0 t3225 + 0 t3231
   + 0 t3232 + 0 t3233 + 0 t3234 + 0 t3235 + 0 t3241 + 0 t3242 + 0 t3243
   + 0 t3244 + 0 t3245 + 0 t3251 + 0 t3252 + 0 t3253 + 0 t3254 + 0 t3255
   + 0 t3261 + 0 t3262 + 0 t3263 + 0 t3264 + 0 t3265 + 0 t3311 + 0 t3312
   + 0 t3313 + 0 t3314 + 0 t3315 + 0 t3321 + 0 t3322 + 0 t3323 + 0 t3324
   + 0 t3325 + 0 t3331 + 0 t3332 + 0 t3333 + 0 t3334 + 0 t3335 + 0 t3341
   + 0 t3342 + 0 t3343 + 0 t3344 + 0 t3345 + 0 t3351 + 0 t3352 + 0 t3353
   + 0 t3354 + 0 t3355 + 0 t3361 + 0 t3362 + 0 t3363 + 0 t3364 + 0 t3365
   + 0 t3411 + 0 t3412 + 0 t3413 + 0 t3414 + 0 t3415 + 0 t3421 + 0 t3422
   + 0 t3423 + 0 t3424 + 0 t3425 + 0 t3431 + 0 t3432 + 0 t3433 + 0 t3434
   + 0 t3435 + 0 t3441 + 0 t3442 + 0 t3443 + 0 t3444 + 0 t3445 + 0 t3451
   + 0 t3452 + 0 t3453 + 0 t3454 + 0 t3455 + 0 t3461 + 0 t3462 + 0 t3463
   + 0 t3464 + 0 t3465 + 0 t3511 + 0 t3512 + 0 t3513 + 0 t3514 + 0 t3515
   + 0 t3521 + 0 t3522 + 0 t3523 + 0 t3524 + 0 t3525 + 0 t3531 + 0 t3532
   + 0 t3533 + 0 t3534 + 0 t3535 + 0 t3541 + 0 t3542 + 0 t3543 + 0 t3544
   + 0 t3545 + 0 t3551 + 0 t3552 + 0 t3553 + 0 t3554 + 0 t3555 + 0 t3561
   + 0 t3562 + 0 t3563 + 0 t3564 + 0 t3565 + 0 t4111 + 0 t4112 + 0 t4113
   + 0 t4114 + 0 t4115 + 0 t4121 + 0 t4122 + 0 t4123 + 0 t4124 + 0 t4125
   + 0 t4131 + 0 t4132 + 0 t4133 + 0 t4134 + 0 t4135 + 0 t4141 + 0 t4142
   + 0 t4143 + 0 t4144 + 0 t4145 + 0 t4151 + 0 t4152 + 0 t4153 + 0 t4154
   + 0 t4155 + 0 t4161 + 0 t4162 + 0 t4163 + 0 t4164 + 0 t4165 + 0 t4211
   + 0 t4212 + 0 t4213 + 0 t4214 + 0 t4215 + 0 t4221 + 0 t4222 + 0 t4223
   + 0 t4224 + 0 t4225 + 0 t4231 + 0 t4232 + 0 t4233 + 0 t4234 + 0 t4235
   + 0 t4241 + 0 t4242 + 0 t4243 + 0 t4244 + 0 t4245 + 0 t4251 + 0 t4252
   + 0 t4253 + 0 t4254 + 0 t4255 + 0 t4261 + 0 t4262 + 0 t4263 + 0 t4264
   + 0 t4265 + 0 t4311 + 0 t4312 + 0 t4313 + 0 t4314 + 0 t4315 + 0 t4321
   + 0 t4322 + 0 t4323 + 0 t4324 + 0 t4325 + 0 t4331 + 0 t4332 + 0 t4333
   + 0 t4334 + 0 t4335 + 0 t4341 + 0 t4342 + 0 t4343 + 0 t4344 + 0 t4345
   + 0 t4351 + 0 t4352 + 0 t4353 + 0 t4354 + 0 t4355 + 0 t4361 + 0 t4362
   + 0 t4363 + 0 t4364 + 0 t4365 + 0 t4411 + 0 t4412 + 0 t4413 + 0 t4414
   + 0 t4415 + 0 t4421 + 0 t4422 + 0 t4423 + 0 t4424 + 0 t4425 + 0 t4431
   + 0 t4432 + 0 t4433 + 0 t4434 + 0 t4435 + 0 t4441 + 0 t4442 + 0 t4443
   + 0 t4444 + 0 t4445 + 0 t4451 + 0 t4452 + 0 t4453 + 0 t4454 + 0 t4455
   + 0 t4461 + 0 t4462 + 0 t4463 + 0 t4464 + 0 t4465 + 0 t4511 + 0 t4512
   + 0 t4513 + 0 t4514 + 0 t4515 + 0 t4521 + 0 t4522 + 0 t4523 + 0 t4524
   + 0 t4525 + 0 t4531 + 0 t4532 + 0 t4533 + 0 t4534 + 0 t4535 + 0 t4541
   + 0 t4542 + 0 t4543 + 0 t4544 + 0 t4545 + 0 t4551 + 0 t4552 + 0 t4553
   + 0 t4554 + 0 t4555 + 0 t4561 + 0 t4562 + 0 t4563 + 0 t4564 + 0 t4565
   + 0 t5111 + 0 t5112 + 0 t5113 + 0 t5114 + 0 t5115 + 0 t5121 + 0 t5122
   + 0 t5123 + 0 t5124 + 0 t5125 + 0 t5131 + 0 t5132 + 0 t5133 + 0 t5134
   + 0 t5135 + 0 t5141 + 0 t5142 + 0 t5143 + 0 t5144 + 0 t5145 + 0 t5151
   + 0 t5152 + 0 t5153 + 0 t5154 + 0 t5155 + 0 t5161 + 0 t5162 + 0 t5163
   + 0 t5164 + 0 t5165 + 0 t5211 + 0 t5212 + 0 t5213 + 0 t5214 + 0 t5215
   + 0 t5221 + 0 t5222 + 0 t5223 + 0 t5224 + 0 t5225 + 0 t5231 + 0 t5232
   + 0 t5233 + 0 t5234 + 0 t5235 + 0 t5241 + 0 t5242 + 0 t5243 + 0 t5244
   + 0 t5245 + 0 t5251 + 0 t5252 + 0 t5253 + 0 t5254 + 0 t5255 + 0 t5261
   + 0 t5262 + 0 t5263 + 0 t5264 + 0 t5265 + 0 t5311 + 0 t5312 + 0 t5313
   + 0 t5314 + 0 t5315 + 0 t5321 + 0 t5322 + 0 t5323 + 0 t5324 + 0 t5325
   + 0 t5331 + 0 t5332 + 0 t5333 + 0 t5334 + 0 t5335 + 0 t5341 + 0 t5342
   + 0 t5343 + 0 t5344 + 0 t5345 + 0 t5351 + 0 t5352 + 0 t5353 + 0 t5354
   + 0 t5355 + 0 t5361 + 0 t5362 + 0 t5363 + 0 t5364 + 0 t5365 + 0 t5411
   + 0 t5412 + 0 t5413 + 0 t5414 + 0 t5415 + 0 t5421 + 0 t5422 + 0 t5423
   + 0 t5424 + 0 t5425 + 0 t5431 + 0 t5432 + 0 t5433 + 0 t5434 + 0 t5435
   + 0 t5441 + 0 t5442 + 0 t5443 + 0 t5444 + 0 t5445 + 0 t5451 + 0 t5452
   + 0 t5453 + 0 t5454 + 0 t5455 + 0 t5461 + 0 t5462 + 0 t5463 + 0 t5464
   + 0 t5465 + 0 t5511 + 0 t5512 + 0 t5513 + 0 t5514 + 0 t5515 + 0 t5521
   + 0 t5522 + 0 t5523 + 0 t5524 + 0 t5525 + 0 t5531 + 0 t5532 + 0 t5533
   + 0 t5534 + 0 t5535 + 0 t5541 + 0 t5542 + 0 t5543 + 0 t5544 + 0 t5545
   + 0 t5551 + 0 t5552 + 0 t5553 + 0 t5554 + 0 t5555 + 0 t5561 + 0 t5562
   + 0 t5563 + 0 t5564 + 0 t5565 + 0 t6111 + 0 t6112 + 0 t6113 + 0 t6114
   + 0 t6115 + 0 t6121 + 0 t6122 + 0 t6123 + 0 t6124 + 0 t6125 + 0 t6131
   + 0 t6132 + 0 t6133 + 0 t6134 + 0 t6135 + 0 t6141 + 0 t6142 + 0 t6143
   + 0 t6144 + 0 t6145 + 0 t6151 + 0 t6152 + 0 t6153 + 0 t6154 + 0 t6155
   + 0 t6161 + 0 t6162 + 0 t6163 + 0 t6164 + 0 t6165 + 0 t6211 + 0 t6212
   + 0 t6213 + 0 t6214 + 0 t6215 + 0 t6221 + 0 t6222 + 0 t6223 + 0 t6224
   + 0 t6225 + 0 t6231 + 0 t6232 + 0 t6233 + 0 t6234 + 0 t6235 + 0 t6241
   + 0 t6242 + 0 t6243 + 0 t6244 + 0 t6245 + 0 t6251 + 0 t6252 + 0 t6253
   + 0 t6254 + 0 t6255 + 0 t6261 + 0 t6262 + 0 t6263 + 0 t6264 + 0 t6265
   + 0 t6311 + 0 t6312 + 0 t6313 + 0 t6314 + 0 t6315 + 0 t6321 + 0 t6322
   + 0 t6323 + 0 t6324 + 0 t6325 + 0 t6331 + 0 t6332 + 0 t6333 + 0 t6334
   + 0 t6335 + 0 t6341 + 0 t6342 + 0 t6343 + 0 t6344 + 0 t6345 + 0 t6351
   + 0 t6352 + 0 t6353 + 0 t6354 + 0 t6355 + 0 t6361 + 0 t6362 + 0 t6363
   + 0 t6364 + 0 t6365 + 0 t6411 + 0 t6412 + 0 t6413 + 0 t6414 + 0 t6415
   + 0 t6421 + 0 t6422 + 0 t6423 + 0 t6424 + 0 t6425 + 0 t6431 + 0 t6432
   + 0 t6433 + 0 t6434 + 0 t6435 + 0 t6441 + 0 t6442 + 0 t6443 + 0 t6444
   + 0 t6445 + 0 t6451 + 0 t6452 + 0 t6453 + 0 t6454 + 0 t6455 + 0 t6461
   + 0 t6462 + 0 t6463 + 0 t6464 + 0 t6465 + 0 t6511 + 0 t6512 + 0 t6513
   + 0 t6514 + 0 t6515 + 0 t6521 + 0 t6522 + 0 t6523 + 0 t6524 + 0 t6525
   + 0 t6531 + 0 t6532 + 0 t6533 + 0 t6534 + 0 t6535 + 0 t6541 + 0 t6542
   + 0 t6543 + 0 t6544 + 0 t6545 + 0 t6551 + 0 t6552 + 0 t6553 + 0 t6554
   + 0 t6555 + 0 t6561 + 0 t6562 + 0 t6563 + 0 t6564 + 0 t6565 + 0 g1
   + 0 g2 + 0 g3 + 0 g4 + 0 g5
Subject To
 Tow_1: y10 + y11 + y12 = 1
 Tow_2: y20 + y21 + y22 = 1
 Tow_3: y30 + y31 + y32 = 1
 Tow_4: y40 + y41 + y42 = 1
 Tow_5: y50 + y51 + y52 = 1
 Tow_6: y60 + y61 + y62 = 1
 Flight_1_Tow00: - y10 + x1100 + x1200 + x1300 + x1400 + x1500 = 0
 Flight_1_Tow10: - y11 + x1110 + x1210 + x1310 + x1410 + x1510 = 0
 Flight_1_Tow11: - y11 + x1111 + x1211 + x1311 + x1411 + x1511 = 0
 Flight_1_Tow20: - y12 + x1120 + x1220 + x1320 + x1420 + x1520 = 0
 Flight_1_Tow21: - y12 + x1121 + x1221 + x1321 + x1421 + x1521 = 0
 Flight_1_Tow22: - y12 + x1122 + x1222 + x1322 + x1422 + x1522 = 0
 Flight_2_Tow00: - y20 + x2100 + x2200 + x2300 + x2400 + x2500 = 0
 Flight_2_Tow10: - y21 + x2110 + x2210 + x2310 + x2410 + x2510 = 0
 Flight_2_Tow11: - y21 + x2111 + x2211 + x2311 + x2411 + x2511 = 0
 Flight_2_Tow20: - y22 + x2120 + x2220 + x2320 + x2420 + x2520 = 0
 Flight_2_Tow21: - y22 + x2121 + x2221 + x2321 + x2421 + x2521 = 0
 Flight_2_Tow22: - y22 + x2122 + x2222 + x2322 + x2422 + x2522 = 0
 Flight_3_Tow00: - y30 + x3100 + x3200 + x3300 + x3400 + x3500 = 0
 Flight_3_Tow10: - y31 + x3110 + x3210 + x3310 + x3410 + x3510 = 0
 Flight_3_Tow11: - y31 + x3111 + x3211 + x3311 + x3411 + x3511 = 0
 Flight_3_Tow20: - y32 + x3120 + x3220 + x3320 + x3420 + x3520 = 0
 Flight_3_Tow21: - y32 + x3121 + x3221 + x3321 + x3421 + x3521 = 0
 Flight_3_Tow22: - y32 + x3122 + x3222 + x3322 + x3422 + x3522 = 0
 Flight_4_Tow00: - y40 + x4100 + x4200 + x4300 + x4400 + x4500 = 0
 Flight_4_Tow10: - y41 + x4110 + x4210 + x4310 + x4410 + x4510 = 0
 Flight_4_Tow11: - y41 + x4111 + x4211 + x4311 + x4411 + x4511 = 0
 Flight_4_Tow20: - y42 + x4120 + x4220 + x4320 + x4420 + x4520 = 0
 Flight_4_Tow21: - y42 + x4121 + x4221 + x4321 + x4421 + x4521 = 0
 Flight_4_Tow22: - y42 + x4122 + x4222 + x4322 + x4422 + x4522 = 0
 Flight_5_Tow00: - y50 + x5100 + x5200 + x5300 + x5400 + x5500 = 0
 Flight_5_Tow10: - y51 + x5110 + x5210 + x5310 + x5410 + x5510 = 0
 Flight_5_Tow11: - y51 + x5111 + x5211 + x5311 + x5411 + x5511 = 0
 Flight_5_Tow20: - y52 + x5120 + x5220 + x5320 + x5420 + x5520 = 0
 Flight_5_Tow21: - y52 + x5121 + x5221 + x5321 + x5421 + x5521 = 0
 Flight_5_Tow22: - y52 + x5122 + x5222 + x5322 + x5422 + x5522 = 0
 Flight_6_Tow00: - y60 + x6100 + x6200 + x6300 + x6400 + x6500 = 0
 Flight_6_Tow10: - y61 + x6110 + x6210 + x6310 + x6410 + x6510 = 0
 Flight_6_Tow11: - y61 + x6111 + x6211 + x6311 + x6411 + x6511 = 0
 Flight_6_Tow20: - y62 + x6120 + x6220 + x6320 + x6420 + x6520 = 0
 Flight_6_Tow21: - y62 + x6121 + x6221 + x6321 + x6421 + x6521 = 0
 Flight_6_Tow22: - y62 + x6122 + x6222 + x6322 + x6422 + x6522 = 0
 Gate_1_Tow00T_1: x1100 <= 1
 Gate_1_Tow10T_1: x1110 <= 1
 Gate_1_Tow11T_1: x1111 <= 1
 Gate_1_Tow20T_1: x1120 <= 1
 Gate_1_Tow21T_1: x1121 <= 1
 Gate_1_Tow22T_1: x1122 <= 1
 Gate_2_Tow00T_1: x1200 <= 1
 Gate_2_Tow10T_1: x1210 <= 1
 Gate_2_Tow11T_1: x1211 <= 1
 Gate_2_Tow20T_1: x1220 <= 1
 Gate_2_Tow21T_1: x1221 <= 1
 Gate_2_Tow22T_1: x1222 <= 1
 Gate_3_Tow00T_1: x1300 <= 1
 Gate_3_Tow10T_1: x1310 <= 1
 Gate_3_Tow11T_1: x1311 <= 1
 Gate_3_Tow20T_1: x1320 <= 1
 Gate_3_Tow21T_1: x1321 <= 1
 Gate_3_Tow22T_1: x1322 <= 1
 Gate_4_Tow00T_1: x1400 <= 1
 Gate_4_Tow10T_1: x1410 <= 1
 Gate_4_Tow11T_1: x1411 <= 1
 Gate_4_Tow20T_1: x1420 <= 1
 Gate_4_Tow21T_1: x1421 <= 1
 Gate_4_Tow22T_1: x1422 <= 1
 Gate_5_Tow00T_1: x1500 <= 1
 Gate_5_Tow10T_1: x1510 <= 1
 Gate_5_Tow11T_1: x1511 <= 1
 Gate_5_Tow20T_1: x1520 <= 1
 Gate_5_Tow21T_1: x1521 <= 1
 Gate_5_Tow22T_1: x1522 <= 1
 Gate_1_Tow00T_2: x1100 + x2100 <= 1
 Gate_1_Tow10T_2: x1110 + x2110 <= 1
 Gate_1_Tow11T_2: x1111 + x2111 <= 1
 Gate_1_Tow20T_2: x1120 + x2120 <= 1
 Gate_1_Tow21T_2: x1121 + x2121 <= 1
 Gate_1_Tow22T_2: x1122 + x2122 <= 1
 Gate_2_Tow00T_2: x1200 + x2200 <= 1
 Gate_2_Tow10T_2: x1210 + x2210 <= 1
 Gate_2_Tow11T_2: x1211 + x2211 <= 1
 Gate_2_Tow20T_2: x1220 + x2220 <= 1
 Gate_2_Tow21T_2: x1221 + x2221 <= 1
 Gate_2_Tow22T_2: x1222 + x2222 <= 1
 Gate_3_Tow00T_2: x1300 + x2300 <= 1
 Gate_3_Tow10T_2: x1310 + x2310 <= 1
 Gate_3_Tow11T_2: x1311 + x2311 <= 1
 Gate_3_Tow20T_2: x1320 + x2320 <= 1
 Gate_3_Tow21T_2: x1321 + x2321 <= 1
 Gate_3_Tow22T_2: x1322 + x2322 <= 1
 Gate_4_Tow00T_2: x1400 + x2400 <= 1
 Gate_4_Tow10T_2: x1410 + x2410 <= 1
 Gate_4_Tow11T_2: x1411 + x2411 <= 1
 Gate_4_Tow20T_2: x1420 + x2420 <= 1
 Gate_4_Tow21T_2: x1421 + x2421 <= 1
 Gate_4_Tow22T_2: x1422 + x2422 <= 1
 Gate_5_Tow00T_2: x1500 + x2500 <= 1
 Gate_5_Tow10T_2: x1510 + x2510 <= 1
 Gate_5_Tow11T_2: x1511 + x2511 <= 1
 Gate_5_Tow20T_2: x1520 + x2520 <= 1
 Gate_5_Tow21T_2: x1521 + x2521 <= 1
 Gate_5_Tow22T_2: x1522 + x2522 <= 1
 Gate_1_Tow00T_3: x2100 + x3100 + x4100 <= 1
 Gate_1_Tow10T_3: x2110 + x3110 + x4110 <= 1
 Gate_1_Tow11T_3: x2111 + x3111 + x4111 <= 1
 Gate_1_Tow20T_3: x2120 + x3120 + x4120 <= 1
 Gate_1_Tow21T_3: x2121 + x3121 + x4121 <= 1
 Gate_1_Tow22T_3: x2122 + x3122 + x4122 <= 1
 Gate_2_Tow00T_3: x2200 + x3200 + x4200 <= 1
 Gate_2_Tow10T_3: x2210 + x3210 + x4210 <= 1
 Gate_2_Tow11T_3: x2211 + x3211 + x4211 <= 1
 Gate_2_Tow20T_3: x2220 + x3220 + x4220 <= 1
 Gate_2_Tow21T_3: x2221 + x3221 + x4221 <= 1
 Gate_2_Tow22T_3: x2222 + x3222 + x4222 <= 1
 Gate_3_Tow00T_3: x2300 + x3300 + x4300 <= 1
 Gate_3_Tow10T_3: x2310 + x3310 + x4310 <= 1
 Gate_3_Tow11T_3: x2311 + x3311 + x4311 <= 1
 Gate_3_Tow20T_3: x2320 + x3320 + x4320 <= 1
 Gate_3_Tow21T_3: x2321 + x3321 + x4321 <= 1
 Gate_3_Tow22T_3: x2322 + x3322 + x4322 <= 1
 Gate_4_Tow00T_3: x2400 + x3400 + x4400 <= 1
 Gate_4_Tow10T_3: x2410 + x3410 + x4410 <= 1
 Gate_4_Tow11T_3: x2411 + x3411 + x4411 <= 1
 Gate_4_Tow20T_3: x2420 + x3420 + x4420 <= 1
 Gate_4_Tow21T_3: x2421 + x3421 + x4421 <= 1
 Gate_4_Tow22T_3: x2422 + x3422 + x4422 <= 1
 Gate_5_Tow00T_3: x2500 + x3500 + x4500 <= 1
 Gate_5_Tow10T_3: x2510 + x3510 + x4510 <= 1
 Gate_5_Tow11T_3: x2511 + x3511 + x4511 <= 1
 Gate_5_Tow20T_3: x2520 + x3520 + x4520 <= 1
 Gate_5_Tow21T_3: x2521 + x3521 + x4521 <= 1
 Gate_5_Tow22T_3: x2522 + x3522 + x4522 <= 1
 Gate_1_Tow00T_4: x2100 + x3100 + x4100 <= 1
 Gate_1_Tow10T_4: x2110 + x3110 + x4110 <= 1
 Gate_1_Tow11T_4: x2111 + x3111 + x4111 <= 1
 Gate_1_Tow20T_4: x2120 + x3120 + x4120 <= 1
 Gate_1_Tow21T_4: x2121 + x3121 + x4121 <= 1
 Gate_1_Tow22T_4: x2122 + x3122 + x4122 <= 1
 Gate_2_Tow00T_4: x2200 + x3200 + x4200 <= 1
 Gate_2_Tow10T_4: x2210 + x3210 + x4210 <= 1
 Gate_2_Tow11T_4: x2211 + x3211 + x4211 <= 1
 Gate_2_Tow20T_4: x2220 + x3220 + x4220 <= 1
 Gate_2_Tow21T_4: x2221 + x3221 + x4221 <= 1
 Gate_2_Tow22T_4: x2222 + x3222 + x4222 <= 1
 Gate_3_Tow00T_4: x2300 + x3300 + x4300 <= 1
 Gate_3_Tow10T_4: x2310 + x3310 + x4310 <= 1
 Gate_3_Tow11T_4: x2311 + x3311 + x4311 <= 1
 Gate_3_Tow20T_4: x2320 + x3320 + x4320 <= 1
 Gate_3_Tow21T_4: x2321 + x3321 + x4321 <= 1
 Gate_3_Tow22T_4: x2322 + x3322 + x4322 <= 1
 Gate_4_Tow00T_4: x2400 + x3400 + x4400 <= 1
 Gate_4_Tow10T_4: x2410 + x3410 + x4410 <= 1
 Gate_4_Tow11T_4: x2411 + x3411 + x4411 <= 1
 Gate_4_Tow20T_4: x2420 + x3420 + x4420 <= 1
 Gate_4_Tow21T_4: x2421 + x3421 + x4421 <= 1
 Gate_4_Tow22T_4: x2422 + x3422 + x4422 <= 1
 Gate_5_Tow00T_4: x2500 + x3500 + x4500 <= 1
 Gate_5_Tow10T_4: x2510 + x3510 + x4510 <= 1
 Gate_5_Tow11T_4: x2511 + x3511 + x4511 <= 1
 Gate_5_Tow20T_4: x2520 + x3520 + x4520 <= 1
 Gate_5_Tow21T_4: x2521 + x3521 + x4521 <= 1
 Gate_5_Tow22T_4: x2522 + x3522 + x4522 <= 1
 Gate_1_Tow00T_5: x3100 + x4100 + x5100 <= 1
 Gate_1_Tow10T_5: x3110 + x4110 + x5110 <= 1
 Gate_1_Tow11T_5: x3111 + x4111 + x5111 <= 1
 Gate_1_Tow20T_5: x3120 + x4120 + x5120 <= 1
 Gate_1_Tow21T_5: x3121 + x4121 + x5121 <= 1
 Gate_1_Tow22T_5: x3122 + x4122 + x5122 <= 1
 Gate_2_Tow00T_5: x3200 + x4200 + x5200 <= 1
 Gate_2_Tow10T_5: x3210 + x4210 + x5210 <= 1
 Gate_2_Tow11T_5: x3211 + x4211 + x5211 <= 1
 Gate_2_Tow20T_5: x3220 + x4220 + x5220 <= 1
 Gate_2_Tow21T_5: x3221 + x4221 + x5221 <= 1
 Gate_2_Tow22T_5: x3222 + x4222 + x5222 <= 1
 Gate_3_Tow00T_5: x3300 + x4300 + x5300 <= 1
 Gate_3_Tow10T_5: x3310 + x4310 + x5310 <= 1
 Gate_3_Tow11T_5: x3311 + x4311 + x5311 <= 1
 Gate_3_Tow20T_5: x3320 + x4320 + x5320 <= 1
 Gate_3_Tow21T_5: x3321 + x4321 + x5321 <= 1
 Gate_3_Tow22T_5: x3322 + x4322 + x5322 <= 1
 Gate_4_Tow00T_5: x3400 + x4400 + x5400 <= 1
 Gate_4_Tow10T_5: x3410 + x4410 + x5410 <= 1
 Gate_4_Tow11T_5: x3411 + x4411 + x5411 <= 1
 Gate_4_Tow20T_5: x3420 + x4420 + x5420 <= 1
 Gate_4_Tow21T_5: x3421 + x4421 + x5421 <= 1
 Gate_4_Tow22T_5: x3422 + x4422 + x5422 <= 1
 Gate_5_Tow00T_5: x3500 + x4500 + x5500 <= 1
 Gate_5_Tow10T_5: x3510 + x4510 + x5510 <= 1
 Gate_5_Tow11T_5: x3511 + x4511 + x5511 <= 1
 Gate_5_Tow20T_5: x3520 + x4520 + x5520 <= 1
 Gate_5_Tow21T_5: x3521 + x4521 + x5521 <= 1
 Gate_5_Tow22T_5: x3522 + x4522 + x5522 <= 1
 Gate_1_Tow00T_6: x0100 <= 1
 Gate_1_Tow10T_6: x0110 <= 1
 Gate_1_Tow11T_6: x0111 <= 1
 Gate_1_Tow20T_6: x0120 <= 1
 Gate_1_Tow21T_6: x0121 <= 1
 Gate_1_Tow22T_6: x0122 <= 1
 Gate_2_Tow00T_6: x0200 <= 1
 Gate_2_Tow10T_6: x0210 <= 1
 Gate_2_Tow11T_6: x0211 <= 1
 Gate_2_Tow20T_6: x0220 <= 1
 Gate_2_Tow21T_6: x0221 <= 1
 Gate_2_Tow22T_6: x0222 <= 1
 Gate_3_Tow00T_6: x0300 <= 1
 Gate_3_Tow10T_6: x0310 <= 1
 Gate_3_Tow11T_6: x0311 <= 1
 Gate_3_Tow20T_6: x0320 <= 1
 Gate_3_Tow21T_6: x0321 <= 1
 Gate_3_Tow22T_6: x0322 <= 1
 Gate_4_Tow00T_6: x0400 <= 1
 Gate_4_Tow10T_6: x0410 <= 1
 Gate_4_Tow11T_6: x0411 <= 1
 Gate_4_Tow20T_6: x0420 <= 1
 Gate_4_Tow21T_6: x0421 <= 1
 Gate_4_Tow22T_6: x0422 <= 1
 Gate_5_Tow00T_6: x0500 <= 1
 Gate_5_Tow10T_6: x0510 <= 1
 Gate_5_Tow11T_6: x0511 <= 1
 Gate_5_Tow20T_6: x0520 <= 1
 Gate_5_Tow21T_6: x0521 <= 1
 Gate_5_Tow22T_6: x0522 <= 1
Bounds
Binaries
 y00 y01 y02 x0000 x0010 x0011 x0020 x0021 x0022 x0100 x0110 x0111 x0120
 x0121 x0122 x0200 x0210 x0211 x0220 x0221 x0222 x0300 x0310 x0311 x0320
 x0321 x0322 x0400 x0410 x0411 x0420 x0421 x0422 x0500 x0510 x0511 x0520
 x0521 x0522 y10 y11 y12 x1000 x1010 x1011 x1020 x1021 x1022 x1100 x1110
 x1111 x1120 x1121 x1122 x1200 x1210 x1211 x1220 x1221 x1222 x1300 x1310
 x1311 x1320 x1321 x1322 x1400 x1410 x1411 x1420 x1421 x1422 x1500 x1510
 x1511 x1520 x1521 x1522 y20 y21 y22 x2000 x2010 x2011 x2020 x2021 x2022
 x2100 x2110 x2111 x2120 x2121 x2122 x2200 x2210 x2211 x2220 x2221 x2222
 x2300 x2310 x2311 x2320 x2321 x2322 x2400 x2410 x2411 x2420 x2421 x2422
 x2500 x2510 x2511 x2520 x2521 x2522 y30 y31 y32 x3000 x3010 x3011 x3020
 x3021 x3022 x3100 x3110 x3111 x3120 x3121 x3122 x3200 x3210 x3211 x3220
 x3221 x3222 x3300 x3310 x3311 x3320 x3321 x3322 x3400 x3410 x3411 x3420
 x3421 x3422 x3500 x3510 x3511 x3520 x3521 x3522 y40 y41 y42 x4000 x4010
 x4011 x4020 x4021 x4022 x4100 x4110 x4111 x4120 x4121 x4122 x4200 x4210
 x4211 x4220 x4221 x4222 x4300 x4310 x4311 x4320 x4321 x4322 x4400 x4410
 x4411 x4420 x4421 x4422 x4500 x4510 x4511 x4520 x4521 x4522 y50 y51 y52
 x5000 x5010 x5011 x5020 x5021 x5022 x5100 x5110 x5111 x5120 x5121 x5122
 x5200 x5210 x5211 x5220 x5221 x5222 x5300 x5310 x5311 x5320 x5321 x5322
 x5400 x5410 x5411 x5420 x5421 x5422 x5500 x5510 x5511 x5520 x5521 x5522
 y60 y61 y62 x6000 x6010 x6011 x6020 x6021 x6022 x6100 x6110 x6111 x6120
 x6121 x6122 x6200 x6210 x6211 x6220 x6221 x6222 x6300 x6310 x6311 x6320
 x6321 x6322 x6400 x6410 x6411 x6420 x6421 x6422 x6500 x6510 x6511 x6520
 x6521 x6522 t1111 t1112 t1113 t1114 t1115 t1121 t1122 t1123 t1124 t1125
 t1131 t1132 t1133 t1134 t1135 t1141 t1142 t1143 t1144 t1145 t1151 t1152
 t1153 t1154 t1155 t1161 t1162 t1163 t1164 t1165 t1211 t1212 t1213 t1214
 t1215 t1221 t1222 t1223 t1224 t1225 t1231 t1232 t1233 t1234 t1235 t1241
 t1242 t1243 t1244 t1245 t1251 t1252 t1253 t1254 t1255 t1261 t1262 t1263
 t1264 t1265 t1311 t1312 t1313 t1314 t1315 t1321 t1322 t1323 t1324 t1325
 t1331 t1332 t1333 t1334 t1335 t1341 t1342 t1343 t1344 t1345 t1351 t1352
 t1353 t1354 t1355 t1361 t1362 t1363 t1364 t1365 t1411 t1412 t1413 t1414
 t1415 t1421 t1422 t1423 t1424 t1425 t1431 t1432 t1433 t1434 t1435 t1441
 t1442 t1443 t1444 t1445 t1451 t1452 t1453 t1454 t1455 t1461 t1462 t1463
 t1464 t1465 t1511 t1512 t1513 t1514 t1515 t1521 t1522 t1523 t1524 t1525
 t1531 t1532 t1533 t1534 t1535 t1541 t1542 t1543 t1544 t1545 t1551 t1552
 t1553 t1554 t1555 t1561 t1562 t1563 t1564 t1565 t2111 t2112 t2113 t2114
 t2115 t2121 t2122 t2123 t2124 t2125 t2131 t2132 t2133 t2134 t2135 t2141
 t2142 t2143 t2144 t2145 t2151 t2152 t2153 t2154 t2155 t2161 t2162 t2163
 t2164 t2165 t2211 t2212 t2213 t2214 t2215 t2221 t2222 t2223 t2224 t2225
 t2231 t2232 t2233 t2234 t2235 t2241 t2242 t2243 t2244 t2245 t2251 t2252
 t2253 t2254 t2255 t2261 t2262 t2263 t2264 t2265 t2311 t2312 t2313 t2314
 t2315 t2321 t2322 t2323 t2324 t2325 t2331 t2332 t2333 t2334 t2335 t2341
 t2342 t2343 t2344 t2345 t2351 t2352 t2353 t2354 t2355 t2361 t2362 t2363
 t2364 t2365 t2411 t2412 t2413 t2414 t2415 t2421 t2422 t2423 t2424 t2425
 t2431 t2432 t2433 t2434 t2435 t2441 t2442 t2443 t2444 t2445 t2451 t2452
 t2453 t2454 t2455 t2461 t2462 t2463 t2464 t2465 t2511 t2512 t2513 t2514
 t2515 t2521 t2522 t2523 t2524 t2525 t2531 t2532 t2533 t2534 t2535 t2541
 t2542 t2543 t2544 t2545 t2551 t2552 t2553 t2554 t2555 t2561 t2562 t2563
 t2564 t2565 t3111 t3112 t3113 t3114 t3115 t3121 t3122 t3123 t3124 t3125
 t3131 t3132 t3133 t3134 t3135 t3141 t3142 t3143 t3144 t3145 t3151 t3152
 t3153 t3154 t3155 t3161 t3162 t3163 t3164 t3165 t3211 t3212 t3213 t3214
 t3215 t3221 t3222 t3223 t3224 t3225 t3231 t3232 t3233 t3234 t3235 t3241
 t3242 t3243 t3244 t3245 t3251 t3252 t3253 t3254 t3255 t3261 t3262 t3263
 t3264 t3265 t3311 t3312 t3313 t3314 t3315 t3321 t3322 t3323 t3324 t3325
 t3331 t3332 t3333 t3334 t3335 t3341 t3342 t3343 t3344 t3345 t3351 t3352
 t3353 t3354 t3355 t3361 t3362 t3363 t3364 t3365 t3411 t3412 t3413 t3414
 t3415 t3421 t3422 t3423 t3424 t3425 t3431 t3432 t3433 t3434 t3435 t3441
 t3442 t3443 t3444 t3445 t3451 t3452 t3453 t3454 t3455 t3461 t3462 t3463
 t3464 t3465 t3511 t3512 t3513 t3514 t3515 t3521 t3522 t3523 t3524 t3525
 t3531 t3532 t3533 t3534 t3535 t3541 t3542 t3543 t3544 t3545 t3551 t3552
 t3553 t3554 t3555 t3561 t3562 t3563 t3564 t3565 t4111 t4112 t4113 t4114
 t4115 t4121 t4122 t4123 t4124 t4125 t4131 t4132 t4133 t4134 t4135 t4141
 t4142 t4143 t4144 t4145 t4151 t4152 t4153 t4154 t4155 t4161 t4162 t4163
 t4164 t4165 t4211 t4212 t4213 t4214 t4215 t4221 t4222 t4223 t4224 t4225
 t4231 t4232 t4233 t4234 t4235 t4241 t4242 t4243 t4244 t4245 t4251 t4252
 t4253 t4254 t4255 t4261 t4262 t4263 t4264 t4265 t4311 t4312 t4313 t4314
 t4315 t4321 t4322 t4323 t4324 t4325 t4331 t4332 t4333 t4334 t4335 t4341
 t4342 t4343 t4344 t4345 t4351 t4352 t4353 t4354 t4355 t4361 t4362 t4363
 t4364 t4365 t4411 t4412 t4413 t4414 t4415 t4421 t4422 t4423 t4424 t4425
 t4431 t4432 t4433 t4434 t4435 t4441 t4442 t4443 t4444 t4445 t4451 t4452
 t4453 t4454 t4455 t4461 t4462 t4463 t4464 t4465 t4511 t4512 t4513 t4514
 t4515 t4521 t4522 t4523 t4524 t4525 t4531 t4532 t4533 t4534 t4535 t4541
 t4542 t4543 t4544 t4545 t4551 t4552 t4553 t4554 t4555 t4561 t4562 t4563
 t4564 t4565 t5111 t5112 t5113 t5114 t5115 t5121 t5122 t5123 t5124 t5125
 t5131 t5132 t5133 t5134 t5135 t5141 t5142 t5143 t5144 t5145 t5151 t5152
 t5153 t5154 t5155 t5161 t5162 t5163 t5164 t5165 t5211 t5212 t5213 t5214
 t5215 t5221 t5222 t5223 t5224 t5225 t5231 t5232 t5233 t5234 t5235 t5241
 t5242 t5243 t5244 t5245 t5251 t5252 t5253 t5254 t5255 t5261 t5262 t5263
 t5264 t5265 t5311 t5312 t5313 t5314 t5315 t5321 t5322 t5323 t5324 t5325
 t5331 t5332 t5333 t5334 t5335 t5341 t5342 t5343 t5344 t5345 t5351 t5352
 t5353 t5354 t5355 t5361 t5362 t5363 t5364 t5365 t5411 t5412 t5413 t5414
 t5415 t5421 t5422 t5423 t5424 t5425 t5431 t5432 t5433 t5434 t5435 t5441
 t5442 t5443 t5444 t5445 t5451 t5452 t5453 t5454 t5455 t5461 t5462 t5463
 t5464 t5465 t5511 t5512 t5513 t5514 t5515 t5521 t5522 t5523 t5524 t5525
 t5531 t5532 t5533 t5534 t5535 t5541 t5542 t5543 t5544 t5545 t5551 t5552
 t5553 t5554 t5555 t5561 t5562 t5563 t5564 t5565 t6111 t6112 t6113 t6114
 t6115 t6121 t6122 t6123 t6124 t6125 t6131 t6132 t6133 t6134 t6135 t6141
 t6142 t6143 t6144 t6145 t6151 t6152 t6153 t6154 t6155 t6161 t6162 t6163
 t6164 t6165 t6211 t6212 t6213 t6214 t6215 t6221 t6222 t6223 t6224 t6225
 t6231 t6232 t6233 t6234 t6235 t6241 t6242 t6243 t6244 t6245 t6251 t6252
 t6253 t6254 t6255 t6261 t6262 t6263 t6264 t6265 t6311 t6312 t6313 t6314
 t6315 t6321 t6322 t6323 t6324 t6325 t6331 t6332 t6333 t6334 t6335 t6341
 t6342 t6343 t6344 t6345 t6351 t6352 t6353 t6354 t6355 t6361 t6362 t6363
 t6364 t6365 t6411 t6412 t6413 t6414 t6415 t6421 t6422 t6423 t6424 t6425
 t6431 t6432 t6433 t6434 t6435 t6441 t6442 t6443 t6444 t6445 t6451 t6452
 t6453 t6454 t6455 t6461 t6462 t6463 t6464 t6465 t6511 t6512 t6513 t6514
 t6515 t6521 t6522 t6523 t6524 t6525 t6531 t6532 t6533 t6534 t6535 t6541
 t6542 t6543 t6544 t6545 t6551 t6552 t6553 t6554 t6555 t6561 t6562 t6563
 t6564 t6565 g1 g2 g3 g4 g5
End
